(set-logic QF_SLIA)
(declare-fun var0 () String)
(assert (not (str.in_re var0 (re.++ ((_ re.loop 16 667) (re.++ (re.union (str.to_re "o\\") (re.union (str.to_re "w-h") (re.union (str.to_re "|5x") (str.to_re "DzK")))) (re.++ (re.union (str.to_re "kC%") (re.union (str.to_re "5m") (re.union (str.to_re "gF\u0022") (str.to_re ",Z")))) (re.++ (re.union (str.to_re "aX_") (re.union (str.to_re "o") (re.union (str.to_re "}=l") (str.to_re "I5")))) (re.union (str.to_re "P") (re.union (str.to_re "=") (re.union (str.to_re "Z") (str.to_re "fo")))))))) (re.++ ((_ re.loop 17 269) (re.++ (re.union (str.to_re "oz") (re.union (str.to_re "paa") (re.union (str.to_re "-X") (str.to_re "AE")))) (re.++ (re.union (str.to_re ".JI") (re.union (str.to_re "|0z") (re.union (str.to_re "%C") (str.to_re "9")))) (re.++ (re.union (str.to_re "o*I") (re.union (str.to_re "p@") (re.union (str.to_re "9-") (str.to_re "l")))) (re.union (str.to_re "%j") (re.union (str.to_re "QN") (re.union (str.to_re "J|Y") (str.to_re "z-")))))))) (re.++ ((_ re.loop 2 465) (re.++ (re.union (str.to_re "Sx*") (re.union (str.to_re "4") (re.union (str.to_re "Rd4") (str.to_re "Xgk")))) (re.++ (re.union (str.to_re "w=R") (re.union (str.to_re "oOz") (re.union (str.to_re "#dc") (str.to_re ",")))) (re.++ (re.union (str.to_re "<{n") (re.union (str.to_re "&") (re.union (str.to_re "6") (str.to_re "H")))) (re.union (str.to_re "E") (re.union (str.to_re "LV") (re.union (str.to_re "q}:") (str.to_re "!Z")))))))) ((_ re.loop 18 814) (re.++ (re.union (str.to_re "*o") (re.union (str.to_re "X") (re.union (str.to_re "pW5") (str.to_re "7$l")))) (re.++ (re.union (str.to_re "}") (re.union (str.to_re "`Wn") (re.union (str.to_re "c:|") (str.to_re ".E")))) (re.++ (re.union (str.to_re "ihN") (re.union (str.to_re "7C") (re.union (str.to_re "@") (str.to_re "C")))) (re.union (str.to_re "w") (re.union (str.to_re "Oc") (re.union (str.to_re "1") (str.to_re "\\"))))))))))))))
(assert (not (str.in_re var0 (re.++ ((_ re.loop 17 766) (re.++ (re.union (str.to_re "$b3") (re.union (str.to_re "5") (re.union (str.to_re "e") (str.to_re "z#R")))) (re.++ (re.union (str.to_re "u") (re.union (str.to_re "]JW") (re.union (str.to_re "U>") (str.to_re "B")))) (re.++ (re.union (str.to_re "N") (re.union (str.to_re "7") (re.union (str.to_re "U'") (str.to_re "&")))) (re.union (str.to_re "d") (re.union (str.to_re "Fau") (re.union (str.to_re "`") (str.to_re "!")))))))) (re.++ ((_ re.loop 3 226) (re.++ (re.union (str.to_re "'5") (re.union (str.to_re "+Ie") (re.union (str.to_re "n") (str.to_re "M")))) (re.++ (re.union (str.to_re "J") (re.union (str.to_re "q&J") (re.union (str.to_re "<'B") (str.to_re "U`0")))) (re.++ (re.union (str.to_re "J") (re.union (str.to_re "KJ<") (re.union (str.to_re "`(&") (str.to_re "yjf")))) (re.union (str.to_re "?") (re.union (str.to_re "o6") (re.union (str.to_re "rW") (str.to_re "[")))))))) (re.++ ((_ re.loop 13 826) (re.++ (re.union (str.to_re "/") (re.union (str.to_re "\\!/") (re.union (str.to_re "@AR") (str.to_re "m5")))) (re.++ (re.union (str.to_re "K86") (re.union (str.to_re "=") (re.union (str.to_re "s`") (str.to_re "4O")))) (re.++ (re.union (str.to_re "bk") (re.union (str.to_re ".") (re.union (str.to_re "q") (str.to_re "{")))) (re.union (str.to_re "_l") (re.union (str.to_re "^") (re.union (str.to_re "8") (str.to_re "r<")))))))) ((_ re.loop 4 645) (re.++ (re.union (str.to_re "(n") (re.union (str.to_re "q") (re.union (str.to_re "z") (str.to_re "K")))) (re.++ (re.union (str.to_re "R") (re.union (str.to_re "8X") (re.union (str.to_re "4Z") (str.to_re "TUC")))) (re.++ (re.union (str.to_re "@_i") (re.union (str.to_re "4A") (re.union (str.to_re "T") (str.to_re "V48")))) (re.union (str.to_re "v-") (re.union (str.to_re "W") (re.union (str.to_re "F") (str.to_re "7>"))))))))))))))
(assert (not (str.in_re var0 (re.++ (re.* re.allchar) (re.++ (re.union (str.to_re "<") (re.union (str.to_re ">") (re.union (str.to_re "'") (re.union (str.to_re "\u0022") (str.to_re "&"))))) (re.* re.allchar))))))
(assert (<= 50 (str.len var0)))
(check-sat)
(get-model)
